35
1 0 1
3 0 1
3 1 1
3 2 1
4 1 1
4 2 1
4 3 1
5 0 1
5 1 1
6 0 1
6 1 1
6 2 1
6 4 1
6 5 1
7 1 1
7 4 1
7 5 1
7 6 1
8 2 1
8 3 1
8 4 1
8 6 1
8 7 1
9 1 1
9 2 1
9 3 1
9 5 1
10 0 1
10 1 1
10 2 1
10 7 1
10 8 1
10 9 1
11 0 1
11 4 1
11 5 1
11 10 1
12 0 1
12 1 1
12 5 1
12 6 1
12 7 1
12 8 1
12 10 1
13 3 1
13 11 1
13 12 1
14 0 1
14 1 1
14 2 1
14 9 1
14 10 1
14 13 1
15 0 1
15 1 1
15 7 1
15 9 1
15 10 1
15 12 1
15 13 1
15 14 1
16 2 1
16 3 1
16 7 1
16 9 1
16 10 1
16 12 1
17 0 1
17 1 1
17 7 1
17 10 1
17 11 1
17 15 1
17 16 1
18 1 1
18 4 1
18 5 1
18 8 1
18 9 1
18 10 1
19 0 1
19 1 1
19 2 1
19 5 1
19 9 1
19 11 1
19 13 1
19 17 1
19 18 1
20 1 1
20 3 1
20 4 1
20 6 1
20 9 1
20 10 1
20 13 1
20 14 1
20 15 1
21 0 1
21 3 1
21 4 1
21 7 1
21 8 1
21 10 1
21 13 1
21 14 1
21 15 1
21 17 1
21 18 1
22 2 1
22 3 1
22 5 1
22 6 1
22 8 1
22 11 1
22 12 1
22 13 1
22 16 1
22 18 1
22 20 1
23 0 1
23 4 1
23 5 1
23 6 1
23 8 1
23 9 1
23 10 1
23 12 1
23 14 1
23 20 1
23 22 1
24 1 1
24 3 1
24 4 1
24 9 1
24 11 1
24 12 1
24 13 1
24 16 1
24 18 1
24 20 1
24 22 1
24 23 1
25 1 1
25 7 1
25 8 1
25 11 1
25 14 1
25 16 1
25 18 1
25 19 1
25 20 1
25 22 1
26 2 1
26 3 1
26 4 1
26 6 1
26 9 1
26 10 1
26 11 1
26 13 1
26 15 1
26 16 1
26 18 1
26 19 1
26 21 1
26 24 1
27 3 1
27 4 1
27 5 1
27 6 1
27 8 1
27 11 1
27 12 1
27 13 1
27 14 1
27 15 1
27 17 1
27 18 1
27 20 1
27 21 1
27 22 1
27 26 1
28 1 1
28 3 1
28 4 1
28 9 1
28 10 1
28 15 1
28 16 1
28 18 1
28 22 1
28 24 1
28 25 1
28 26 1
28 27 1
29 0 1
29 2 1
29 3 1
29 5 1
29 8 1
29 9 1
29 10 1
29 12 1
29 13 1
29 14 1
29 16 1
29 19 1
29 20 1
29 22 1
29 24 1
29 25 1
29 26 1
30 6 1
30 7 1
30 8 1
30 12 1
30 14 1
30 16 1
30 18 1
30 19 1
30 20 1
30 21 1
30 22 1
30 24 1
30 25 1
30 26 1
30 27 1
30 28 1
30 29 1
31 0 1
31 1 1
31 4 1
31 8 1
31 9 1
31 10 1
31 12 1
31 15 1
31 16 1
31 17 1
31 19 1
31 21 1
31 22 1
31 29 1
31 30 1
32 6 1
32 8 1
32 9 1
32 13 1
32 14 1
32 16 1
32 25 1
32 26 1
32 28 1
33 1 1
33 4 1
33 5 1
33 7 1
33 8 1
33 11 1
33 12 1
33 13 1
33 16 1
33 19 1
33 20 1
33 22 1
33 23 1
33 27 1
33 28 1
33 31 1
34 1 1
34 6 1
34 8 1
34 9 1
34 16 1
34 17 1
34 20 1
34 22 1
34 24 1
34 25 1
34 28 1
34 29 1
34 30 1
34 33 1
